EVRP-TW-SPD dataset generation/evrptwspd_instances/small_instances/Cplex5er/c208C5.txt
StringID	Type	x	y	Delivery	Pickup	ReadyTime	DueDate	ServiceTime
D0	d	40.0	50.0	0.0	0.0	0.0	3390.0	0.0
S0	f	40.0	50.0	0.0	0.0	0.0	3390.0	0.0
S11	f	10.0	28.0	0.0	0.0	0.0	3390.0	0.0
S14	f	27.0	10.0	0.0	0.0	0.0	3390.0	0.0
C39	c	0.0	45.0	0.0	20.0	1642.0	2282.0	90.0
C50	c	26.0	32.0	8.125	1.875	255.0	895.0	90.0
C60	c	35.0	5.0	2.8571428571428568	17.142857142857142	1152.0	1792.0	90.0
C58	c	38.0	5.0	3.9473684210526314	26.05263157894737	1245.0	1885.0	90.0
C53	c	44.0	5.0	2.2727272727272725	17.727272727272727	1431.0	2071.0	90.0

Q Vehicle fuel tank capacity /77.75/
C Vehicle load capacity /700.0/
r fuel consumption rate /1.0/
g inverse refueling rate /3.47/
v average Velocity /1.0/
